c WARNING: for repeatability, setting FPU to use double precision
d VARIABLES            138130       
d CONSTRAINTS          582720       
c ============================[ Problem Statistics ]=============================
c |                                                                             |
c |  Number of variables:        138130                                         |
c |  Number of clauses:          582720                                         |
c |  Parse time:                   0.09 s                                       |
c |                                                                             |
c ============================[ Search Statistics ]==============================
c | Conflicts |          ORIGINAL         |          LEARNT          | Progress |
c |           |    Vars  Clauses Literals |    Limit  Clauses Lit/Cl |          |
c ===============================================================================
c |       100 |  109152   508090  1235641 |   186299       99      7 | 20.979 % |
c |       250 |  109152   508090  1235641 |   204929      249     33 | 20.979 % |
c |       475 |  109152   508090  1235641 |   225422      474     42 | 20.979 % |
c |       812 |  109152   508035  1235509 |   247964      811     54 | 20.979 % |
c |      1318 |  109152   508035  1235509 |   272761     1317     80 | 20.979 % |
c |      2077 |  109151   508025  1235486 |   300037     2073     93 | 20.980 % |
c |      3216 |  109151   508025  1235486 |   330041     3212    146 | 20.980 % |
c |      4924 |  109151   508025  1235486 |   363045     4920    130 | 20.980 % |
c |      7486 |  109151   508025  1235486 |   399349     7482    146 | 20.980 % |
c |     11330 |  109151   508025  1235486 |   439284    11326    151 | 20.980 % |
c |     17096 |  109151   508025  1235486 |   483213    17092    147 | 20.980 % |
c |     25745 |  109151   508025  1235486 |   531534    25741    143 | 20.980 % |
c |     38719 |  109144   507985  1235394 |   584688    38694    142 | 20.985 % |
c |     58180 |  109061   507717  1234779 |   643156    58002    142 | 21.045 % |
c ===============================================================================
c restarts              : 212
c conflicts             : 68249          (2409 /sec)
c decisions             : 440536         (0.00 % random) (15548 /sec)
c propagations          : 144302148      (5092938 /sec)
c conflict literals     : 8869068        (14.53 % deleted)
d RESTARTS             212
d FAILURES             68249        
d NODES                440536       
d BACKTRACKS           440536       
d PROPAGATIONS         144302148    
d NOGOODSIZE           129.95 
d MEMORY               90.00 
d TIME                 28.3338 

s UNSATISFIABLE
